NAME : eil76.577.tour
COMMENT : Cost = 193_577
COMMENT : Found by LKH [Keld Helsgaun] Thu Nov 16 17:24:51 2017
TYPE : TOUR
DIMENSION : 78
TOUR_SECTION
1
62
28
74
30
48
29
45
27
52
34
46
7
35
53
14
59
11
66
65
38
58
12
40
17
51
6
33
78
73
2
68
4
75
76
26
67
8
19
54
13
57
15
5
37
20
70
60
71
69
36
47
21
61
22
77
43
42
64
41
56
23
49
24
18
50
25
55
31
10
72
39
9
32
44
3
16
63
-1
EOF
